sat
( (tmp_init 2)
  (xtmp_init 0)
  (x_init (- 2))
  (y_init (- 2))
  (c_0 (- 2))
  (c_1 2)
  (c_2 0)
  (c_3 (- 2))
  (c_4 (- 2))
  (c_5 (- 1))
  (c_6 0)
  (c_7 (- 1))
  (c_8 0)
  (c_9 0)
  (c_10 (- 1))
  (c_11 0)
  (c_12 0)
  (c_13 0)
  (c_14 (- 1))
  (c_15 2)
  (c_16 1)
  (c_17 0)
  (c_18 0)
  (c_19 (- 1))
  (c_20 (- 3))
  (c_21 (- 1))
  (c_22 0)
  (c_23 0)
  (c_24 0) )
